
******************************************************************************
This program contains Ipopt, a library for large-scale nonlinear optimization.
 Ipopt is released as open source code under the Eclipse Public License (EPL).
         For more information visit https://github.com/coin-or/Ipopt
******************************************************************************

This is Ipopt version 3.14.19, running with linear solver MUMPS 5.8.1.

Number of nonzeros in equality constraint Jacobian...:     2204
Number of nonzeros in inequality constraint Jacobian.:        0
Number of nonzeros in Lagrangian Hessian.............:      525

Total number of variables............................:      647
                     variables with only lower bounds:        0
                variables with lower and upper bounds:      232
                     variables with only upper bounds:        0
Total number of equality constraints.................:      639
Total number of inequality constraints...............:        0
        inequality constraints with only lower bounds:        0
   inequality constraints with lower and upper bounds:        0
        inequality constraints with only upper bounds:        0

iter    objective    inf_pr   inf_du lg(mu)  ||d||  lg(rg) alpha_du alpha_pr  ls
   0  4.9473824e+00 9.90e+01 4.20e-04  -1.0 0.00e+00    -  0.00e+00 0.00e+00   0
   1  4.9521491e+00 6.10e-01 3.73e+01  -1.0 9.84e+01    -  2.56e-02 1.00e+00h  1
   2  4.9522543e+00 4.15e-03 7.86e-02  -1.0 4.87e-01    -  9.83e-01 1.00e+00h  1
   3  4.9579607e+00 7.73e-02 3.40e+00  -1.0 4.05e+00    -  4.04e-01 6.88e-01f  1
   4  4.9641530e+00 7.41e-02 1.19e-03  -1.0 6.40e-01    -  1.00e+00 1.00e+00f  1
   5  4.9558123e+00 1.01e+00 4.40e-03  -2.5 1.31e+00    -  1.00e+00 1.00e+00h  1
   6  4.9538642e+00 1.84e-01 3.11e-04  -2.5 1.58e+00    -  1.00e+00 1.00e+00h  1
   7  4.9536522e+00 4.43e-04 3.60e-06  -2.5 2.31e-01    -  1.00e+00 1.00e+00h  1
   8  4.9522545e+00 3.14e-03 8.15e-02  -3.8 7.81e-01    -  8.02e-01 1.00e+00h  1
   9  4.9484722e+00 2.47e-03 1.62e-03  -3.8 2.16e+00    -  1.00e+00 1.00e+00h  1
iter    objective    inf_pr   inf_du lg(mu)  ||d||  lg(rg) alpha_du alpha_pr  ls
  10  4.9474568e+00 3.21e-04 1.15e-04  -3.8 6.15e-01    -  1.00e+00 1.00e+00h  1
  11  4.9463729e+00 1.30e-04 8.61e-04  -5.7 6.54e-01    -  8.99e-01 1.00e+00h  1
  12  4.9463097e+00 1.22e-05 3.09e-04  -5.7 3.61e-02    -  1.00e+00 9.54e-01h  1
  13  4.9463122e+00 1.01e-08 4.91e-10  -5.7 7.96e-04    -  1.00e+00 1.00e+00f  1
  14  4.9462974e+00 5.15e-08 1.43e-07  -8.6 8.70e-03    -  1.00e+00 9.99e-01h  1
  15  4.9462974e+00 2.26e-13 1.36e-15  -8.6 1.14e-06    -  1.00e+00 1.00e+00f  1

Number of Iterations....: 15

                                   (scaled)                 (unscaled)
Objective...............:   4.9462973653637876e+00    4.9462973653637876e+00
Dual infeasibility......:   1.3600232051658168e-15    1.3600232051658168e-15
Constraint violation....:   2.2648549702901491e-13    2.2648549702901491e-13
Variable bound violation:   0.0000000000000000e+00    0.0000000000000000e+00
Complementarity.........:   2.5064439513179881e-09    2.5064439513179881e-09
Overall NLP error.......:   2.5064439513179881e-09    2.5064439513179881e-09


Number of objective function evaluations             = 16
Number of objective gradient evaluations             = 16
Number of equality constraint evaluations            = 16
Number of inequality constraint evaluations          = 0
Number of equality constraint Jacobian evaluations   = 16
Number of inequality constraint Jacobian evaluations = 0
Number of Lagrangian Hessian evaluations             = 15
Total seconds in IPOPT                               = 0.040

EXIT: Optimal Solution Found.
